p cnf 196 1
196 0
w 1 0.428476
w 2 1 0.181836
w 2 -1 0.00334783
w 3 2 1
w 3 -2 0
w 4 3 0.699263
w 4 -3 0.236397
w 5 4 1
w 5 -4 0
w 6 5 0.843128
w 6 -5 0.776769
w 7 6 0
w 7 -6 1
w 8 7 1
w 8 -7 0
w 9 8 0
w 9 -8 1
w 10 9 0
w 10 -9 1
w 11 10 0
w 11 -10 1
w 12 11 0.947736
w 12 -11 0.920456
w 13 12 1
w 13 -12 0
w 14 13 0.0328862
w 14 -13 0.777606
w 15 1 1
w 15 -1 0
w 16 15 2 0.927913
w 16 15 -2 0.00984465
w 16 -15 2 0.726093
w 16 -15 -2 0.627175
w 17 16 3 0
w 17 16 -3 1
w 17 -16 3 0
w 17 -16 -3 0
w 18 17 4 1
w 18 17 -4 0
w 18 -17 4 1
w 18 -17 -4 1
w 19 18 5 0
w 19 18 -5 1
w 19 -18 5 1
w 19 -18 -5 1
w 20 19 6 1
w 20 19 -6 1
w 20 -19 6 0
w 20 -19 -6 0
w 21 20 7 1
w 21 20 -7 0
w 21 -20 7 0
w 21 -20 -7 1
w 22 21 8 1
w 22 21 -8 1
w 22 -21 8 0
w 22 -21 -8 1
w 23 22 9 0
w 23 22 -9 1
w 23 -22 9 0
w 23 -22 -9 1
w 24 23 10 0
w 24 23 -10 1
w 24 -23 10 0
w 24 -23 -10 0
w 25 24 11 0
w 25 24 -11 1
w 25 -24 11 0
w 25 -24 -11 1
w 26 25 12 0.77431
w 26 25 -12 0.717504
w 26 -25 12 0.803457
w 26 -25 -12 0.160249
w 27 26 13 0
w 27 26 -13 0
w 27 -26 13 1
w 27 -26 -13 0
w 28 27 14 1
w 28 27 -14 0
w 28 -27 14 1
w 28 -27 -14 0
w 29 15 0
w 29 -15 1
w 30 29 16 0
w 30 29 -16 0
w 30 -29 16 1
w 30 -29 -16 0
w 31 30 17 1
w 31 30 -17 0
w 31 -30 17 0
w 31 -30 -17 1
w 32 31 18 1
w 32 31 -18 0
w 32 -31 18 1
w 32 -31 -18 0
w 33 32 19 0
w 33 32 -19 0
w 33 -32 19 0
w 33 -32 -19 1
w 34 33 20 0
w 34 33 -20 1
w 34 -33 20 0
w 34 -33 -20 1
w 35 34 21 0
w 35 34 -21 0
w 35 -34 21 0
w 35 -34 -21 1
w 36 35 22 0
w 36 35 -22 1
w 36 -35 22 1
w 36 -35 -22 1
w 37 36 23 0
w 37 36 -23 0
w 37 -36 23 0
w 37 -36 -23 1
w 38 37 24 1
w 38 37 -24 0
w 38 -37 24 1
w 38 -37 -24 0
w 39 38 25 0
w 39 38 -25 1
w 39 -38 25 0
w 39 -38 -25 0
w 40 39 26 0.423902
w 40 39 -26 0.4914
w 40 -39 26 0.977457
w 40 -39 -26 0.321585
w 41 40 27 1
w 41 40 -27 1
w 41 -40 27 0
w 41 -40 -27 1
w 42 41 28 1
w 42 41 -28 1
w 42 -41 28 0
w 42 -41 -28 0
w 43 29 0
w 43 -29 1
w 44 43 30 1
w 44 43 -30 0
w 44 -43 30 0
w 44 -43 -30 1
w 45 44 31 0
w 45 44 -31 0
w 45 -44 31 1
w 45 -44 -31 0
w 46 45 32 0
w 46 45 -32 1
w 46 -45 32 0
w 46 -45 -32 0
w 47 46 33 0
w 47 46 -33 1
w 47 -46 33 0
w 47 -46 -33 0
w 48 47 34 1
w 48 47 -34 0
w 48 -47 34 1
w 48 -47 -34 1
w 49 48 35 0.00130128
w 49 48 -35 0.220753
w 49 -48 35 0.0163481
w 49 -48 -35 0.710153
w 50 49 36 0
w 50 49 -36 1
w 50 -49 36 1
w 50 -49 -36 0
w 51 50 37 0
w 51 50 -37 0
w 51 -50 37 1
w 51 -50 -37 0
w 52 51 38 1
w 52 51 -38 0
w 52 -51 38 0
w 52 -51 -38 0
w 53 52 39 1
w 53 52 -39 0
w 53 -52 39 0
w 53 -52 -39 1
w 54 53 40 1
w 54 53 -40 0
w 54 -53 40 0
w 54 -53 -40 0
w 55 54 41 1
w 55 54 -41 1
w 55 -54 41 1
w 55 -54 -41 0
w 56 55 42 1
w 56 55 -42 1
w 56 -55 42 0
w 56 -55 -42 0
w 57 43 1
w 57 -43 0
w 58 57 44 0
w 58 57 -44 1
w 58 -57 44 1
w 58 -57 -44 0
w 59 58 45 1
w 59 58 -45 0
w 59 -58 45 0
w 59 -58 -45 1
w 60 59 46 1
w 60 59 -46 0
w 60 -59 46 1
w 60 -59 -46 0
w 61 60 47 1
w 61 60 -47 0
w 61 -60 47 1
w 61 -60 -47 1
w 62 61 48 0
w 62 61 -48 0
w 62 -61 48 1
w 62 -61 -48 1
w 63 62 49 0
w 63 62 -49 0
w 63 -62 49 1
w 63 -62 -49 0
w 64 63 50 0
w 64 63 -50 0
w 64 -63 50 0
w 64 -63 -50 1
w 65 64 51 1
w 65 64 -51 1
w 65 -64 51 0
w 65 -64 -51 0
w 66 65 52 1
w 66 65 -52 1
w 66 -65 52 0
w 66 -65 -52 0
w 67 66 53 1
w 67 66 -53 1
w 67 -66 53 1
w 67 -66 -53 0
w 68 67 54 0.333147
w 68 67 -54 0.278492
w 68 -67 54 0.226524
w 68 -67 -54 0.0547654
w 69 68 55 0
w 69 68 -55 1
w 69 -68 55 0
w 69 -68 -55 1
w 70 69 56 0.491272
w 70 69 -56 0.694859
w 70 -69 56 0.0866759
w 70 -69 -56 0.957506
w 71 57 0
w 71 -57 1
w 72 71 58 0
w 72 71 -58 1
w 72 -71 58 1
w 72 -71 -58 0
w 73 72 59 0.481494
w 73 72 -59 0.655733
w 73 -72 59 0.902291
w 73 -72 -59 0.154216
w 74 73 60 1
w 74 73 -60 0
w 74 -73 60 0
w 74 -73 -60 0
w 75 74 61 1
w 75 74 -61 0
w 75 -74 61 1
w 75 -74 -61 0
w 76 75 62 0.465186
w 76 75 -62 0.604689
w 76 -75 62 0.646677
w 76 -75 -62 0.436952
w 77 76 63 1
w 77 76 -63 0
w 77 -76 63 1
w 77 -76 -63 0
w 78 77 64 0.152161
w 78 77 -64 0.696389
w 78 -77 64 0.551856
w 78 -77 -64 0.611194
w 79 78 65 1
w 79 78 -65 1
w 79 -78 65 0
w 79 -78 -65 1
w 80 79 66 0.525545
w 80 79 -66 0.176971
w 80 -79 66 0.937896
w 80 -79 -66 0.6503
w 81 80 67 1
w 81 80 -67 1
w 81 -80 67 0
w 81 -80 -67 1
w 82 81 68 0.223349
w 82 81 -68 0.45239
w 82 -81 68 0.402912
w 82 -81 -68 0.660301
w 83 82 69 1
w 83 82 -69 0
w 83 -82 69 1
w 83 -82 -69 0
w 84 83 70 1
w 84 83 -70 0
w 84 -83 70 0
w 84 -83 -70 1
w 85 71 0
w 85 -71 1
w 86 85 72 0
w 86 85 -72 1
w 86 -85 72 1
w 86 -85 -72 1
w 87 86 73 0
w 87 86 -73 0
w 87 -86 73 1
w 87 -86 -73 1
w 88 87 74 1
w 88 87 -74 1
w 88 -87 74 0
w 88 -87 -74 1
w 89 88 75 0
w 89 88 -75 1
w 89 -88 75 0
w 89 -88 -75 1
w 90 89 76 0
w 90 89 -76 0
w 90 -89 76 0
w 90 -89 -76 1
w 91 90 77 1
w 91 90 -77 0
w 91 -90 77 1
w 91 -90 -77 0
w 92 91 78 1
w 92 91 -78 0
w 92 -91 78 1
w 92 -91 -78 0
w 93 92 79 0.589627
w 93 92 -79 0.615616
w 93 -92 79 0.501758
w 93 -92 -79 0.283383
w 94 93 80 0.503595
w 94 93 -80 0.978719
w 94 -93 80 0.0176244
w 94 -93 -80 0.353132
w 95 94 81 0
w 95 94 -81 1
w 95 -94 81 0
w 95 -94 -81 0
w 96 95 82 1
w 96 95 -82 0
w 96 -95 82 1
w 96 -95 -82 1
w 97 96 83 1
w 97 96 -83 0
w 97 -96 83 0
w 97 -96 -83 0
w 98 97 84 0
w 98 97 -84 0
w 98 -97 84 0
w 98 -97 -84 1
w 99 85 1
w 99 -85 0
w 100 99 86 1
w 100 99 -86 1
w 100 -99 86 1
w 100 -99 -86 0
w 101 100 87 1
w 101 100 -87 0
w 101 -100 87 1
w 101 -100 -87 1
w 102 101 88 1
w 102 101 -88 1
w 102 -101 88 0
w 102 -101 -88 0
w 103 102 89 1
w 103 102 -89 0
w 103 -102 89 1
w 103 -102 -89 1
w 104 103 90 1
w 104 103 -90 1
w 104 -103 90 1
w 104 -103 -90 0
w 105 104 91 1
w 105 104 -91 0
w 105 -104 91 1
w 105 -104 -91 0
w 106 105 92 0
w 106 105 -92 1
w 106 -105 92 1
w 106 -105 -92 0
w 107 106 93 0.18517
w 107 106 -93 0.539017
w 107 -106 93 0.29735
w 107 -106 -93 0.574761
w 108 107 94 0.0122261
w 108 107 -94 0.249147
w 108 -107 94 0.703725
w 108 -107 -94 0.610805
w 109 108 95 0
w 109 108 -95 0
w 109 -108 95 1
w 109 -108 -95 1
w 110 109 96 1
w 110 109 -96 0
w 110 -109 96 1
w 110 -109 -96 0
w 111 110 97 1
w 111 110 -97 1
w 111 -110 97 0
w 111 -110 -97 0
w 112 111 98 1
w 112 111 -98 0
w 112 -111 98 1
w 112 -111 -98 0
w 113 99 0.149784
w 113 -99 0.917425
w 114 113 100 0
w 114 113 -100 0
w 114 -113 100 0
w 114 -113 -100 1
w 115 114 101 0.0701651
w 115 114 -101 0.0973281
w 115 -114 101 0.40497
w 115 -114 -101 0.920623
w 116 115 102 1
w 116 115 -102 0
w 116 -115 102 1
w 116 -115 -102 0
w 117 116 103 0
w 117 116 -103 0
w 117 -116 103 1
w 117 -116 -103 1
w 118 117 104 1
w 118 117 -104 1
w 118 -117 104 1
w 118 -117 -104 0
w 119 118 105 1
w 119 118 -105 1
w 119 -118 105 0
w 119 -118 -105 0
w 120 119 106 1
w 120 119 -106 0
w 120 -119 106 0
w 120 -119 -106 0
w 121 120 107 0.590896
w 121 120 -107 0.743574
w 121 -120 107 0.160703
w 121 -120 -107 0.511518
w 122 121 108 0.017836
w 122 121 -108 0.775527
w 122 -121 108 0.719776
w 122 -121 -108 0.0178718
w 123 122 109 1
w 123 122 -109 1
w 123 -122 109 1
w 123 -122 -109 0
w 124 123 110 0.0561615
w 124 123 -110 0.866543
w 124 -123 110 0.525904
w 124 -123 -110 0.564358
w 125 124 111 1
w 125 124 -111 0
w 125 -124 111 0
w 125 -124 -111 0
w 126 125 112 0
w 126 125 -112 1
w 126 -125 112 1
w 126 -125 -112 0
w 127 113 0.114467
w 127 -113 0.118227
w 128 127 114 0
w 128 127 -114 0
w 128 -127 114 1
w 128 -127 -114 1
w 129 128 115 0
w 129 128 -115 0
w 129 -128 115 1
w 129 -128 -115 1
w 130 129 116 0.181884
w 130 129 -116 0.0327629
w 130 -129 116 0.689157
w 130 -129 -116 0.238045
w 131 130 117 0.215061
w 131 130 -117 0.802403
w 131 -130 117 0.2303
w 131 -130 -117 0.236268
w 132 131 118 1
w 132 131 -118 1
w 132 -131 118 0
w 132 -131 -118 0
w 133 132 119 0
w 133 132 -119 0
w 133 -132 119 1
w 133 -132 -119 0
w 134 133 120 0.722808
w 134 133 -120 0.932455
w 134 -133 120 0.457437
w 134 -133 -120 0.433349
w 135 134 121 0
w 135 134 -121 1
w 135 -134 121 1
w 135 -134 -121 0
w 136 135 122 0
w 136 135 -122 1
w 136 -135 122 1
w 136 -135 -122 0
w 137 136 123 0.143868
w 137 136 -123 0.366859
w 137 -136 123 0.786014
w 137 -136 -123 0.374168
w 138 137 124 1
w 138 137 -124 1
w 138 -137 124 1
w 138 -137 -124 0
w 139 138 125 1
w 139 138 -125 0
w 139 -138 125 1
w 139 -138 -125 0
w 140 139 126 1
w 140 139 -126 0
w 140 -139 126 0
w 140 -139 -126 0
w 141 127 1
w 141 -127 0
w 142 141 128 1
w 142 141 -128 1
w 142 -141 128 0
w 142 -141 -128 0
w 143 142 129 0.752702
w 143 142 -129 0.15119
w 143 -142 129 0.881992
w 143 -142 -129 0.89657
w 144 143 130 0
w 144 143 -130 0
w 144 -143 130 1
w 144 -143 -130 1
w 145 144 131 0.394504
w 145 144 -131 0.768712
w 145 -144 131 0.552269
w 145 -144 -131 0.676881
w 146 145 132 0.993564
w 146 145 -132 0.953399
w 146 -145 132 0.79642
w 146 -145 -132 0.262551
w 147 146 133 0.571372
w 147 146 -133 0.988974
w 147 -146 133 0.385399
w 147 -146 -133 0.571785
w 148 147 134 0
w 148 147 -134 0
w 148 -147 134 1
w 148 -147 -134 1
w 149 148 135 1
w 149 148 -135 0
w 149 -148 135 0
w 149 -148 -135 1
w 150 149 136 0.77717
w 150 149 -136 0.179302
w 150 -149 136 0.109887
w 150 -149 -136 0.898346
w 151 150 137 1
w 151 150 -137 1
w 151 -150 137 1
w 151 -150 -137 0
w 152 151 138 0
w 152 151 -138 1
w 152 -151 138 1
w 152 -151 -138 1
w 153 152 139 0.396046
w 153 152 -139 0.727682
w 153 -152 139 0.261255
w 153 -152 -139 0.967831
w 154 153 140 0
w 154 153 -140 0
w 154 -153 140 1
w 154 -153 -140 1
w 155 141 0
w 155 -141 1
w 156 155 142 0
w 156 155 -142 1
w 156 -155 142 0
w 156 -155 -142 0
w 157 156 143 0
w 157 156 -143 0
w 157 -156 143 1
w 157 -156 -143 1
w 158 157 144 0
w 158 157 -144 0
w 158 -157 144 1
w 158 -157 -144 1
w 159 158 145 0.304645
w 159 158 -145 0.589488
w 159 -158 145 0.65227
w 159 -158 -145 0.180501
w 160 159 146 0.379952
w 160 159 -146 0.441756
w 160 -159 146 0.953365
w 160 -159 -146 0.68574
w 161 160 147 0
w 161 160 -147 1
w 161 -160 147 1
w 161 -160 -147 0
w 162 161 148 1
w 162 161 -148 0
w 162 -161 148 0
w 162 -161 -148 1
w 163 162 149 0.922374
w 163 162 -149 0.532156
w 163 -162 149 0.99697
w 163 -162 -149 0.584601
w 164 163 150 0
w 164 163 -150 1
w 164 -163 150 1
w 164 -163 -150 1
w 165 164 151 0
w 165 164 -151 0
w 165 -164 151 1
w 165 -164 -151 0
w 166 165 152 1
w 166 165 -152 0
w 166 -165 152 1
w 166 -165 -152 1
w 167 166 153 0
w 167 166 -153 1
w 167 -166 153 1
w 167 -166 -153 1
w 168 167 154 0.666802
w 168 167 -154 0.21261
w 168 -167 154 0.515574
w 168 -167 -154 0.232568
w 169 155 0
w 169 -155 1
w 170 169 156 1
w 170 169 -156 1
w 170 -169 156 1
w 170 -169 -156 0
w 171 170 157 0.0607025
w 171 170 -157 0.66377
w 171 -170 157 0.589601
w 171 -170 -157 0.146676
w 172 171 158 1
w 172 171 -158 1
w 172 -171 158 1
w 172 -171 -158 0
w 173 172 159 1
w 173 172 -159 0
w 173 -172 159 0
w 173 -172 -159 0
w 174 173 160 0.741589
w 174 173 -160 0.696288
w 174 -173 160 0.398557
w 174 -173 -160 0.599714
w 175 174 161 0
w 175 174 -161 1
w 175 -174 161 1
w 175 -174 -161 0
w 176 175 162 1
w 176 175 -162 1
w 176 -175 162 0
w 176 -175 -162 1
w 177 176 163 0
w 177 176 -163 0
w 177 -176 163 1
w 177 -176 -163 0
w 178 177 164 0
w 178 177 -164 1
w 178 -177 164 1
w 178 -177 -164 1
w 179 178 165 1
w 179 178 -165 0
w 179 -178 165 1
w 179 -178 -165 1
w 180 179 166 0.456941
w 180 179 -166 0.787526
w 180 -179 166 0.441588
w 180 -179 -166 0.82003
w 181 180 167 0
w 181 180 -167 1
w 181 -180 167 0
w 181 -180 -167 0
w 182 181 168 0
w 182 181 -168 1
w 182 -181 168 0
w 182 -181 -168 0
w 183 169 0
w 183 -169 1
w 184 183 170 0
w 184 183 -170 0
w 184 -183 170 0
w 184 -183 -170 1
w 185 184 171 1
w 185 184 -171 0
w 185 -184 171 1
w 185 -184 -171 0
w 186 185 172 0
w 186 185 -172 1
w 186 -185 172 0
w 186 -185 -172 0
w 187 186 173 0
w 187 186 -173 1
w 187 -186 173 0
w 187 -186 -173 0
w 188 187 174 1
w 188 187 -174 0
w 188 -187 174 1
w 188 -187 -174 1
w 189 188 175 1
w 189 188 -175 0
w 189 -188 175 1
w 189 -188 -175 1
w 190 189 176 1
w 190 189 -176 0
w 190 -189 176 1
w 190 -189 -176 1
w 191 190 177 0.176255
w 191 190 -177 0.992501
w 191 -190 177 0.267244
w 191 -190 -177 0.703785
w 192 191 178 1
w 192 191 -178 0
w 192 -191 178 1
w 192 -191 -178 1
w 193 192 179 0.817752
w 193 192 -179 0.812484
w 193 -192 179 0.252047
w 193 -192 -179 0.207525
w 194 193 180 1
w 194 193 -180 0
w 194 -193 180 1
w 194 -193 -180 1
w 195 194 181 0.39838
w 195 194 -181 0.147515
w 195 -194 181 0.395837
w 195 -194 -181 0.747566
w 196 195 182 0
w 196 195 -182 1
w 196 -195 182 1
w 196 -195 -182 1